5 9 3 5 1 -1 6 0 2 -1 
0 4 -1 9 3 6 -1 0 -1 -1 
3 0 0 4 7 6 0 -1 -1 -1 
3 1 5 0 0 0 7 8 3 -1 
3 9 5 6 9 7 9 7 5 -1 
3 0 9 8 9 8 0 8 9 -1 
3 3 0 2 9 7 9 6 4 -1 
2 5 0 7 8 6 9 8 0 -1 
-1 0 2 4 3 4 8 7 5 -1 
7 5 -1 -1 6 7 7 2 4 -1 
5 6 6 3 3 5 3 5 4 -1 
7 -1 -1 7 5 5 7 -1 3 -1 
0 7 -1 3 6 6 9 5 7 -1 
6 9 3 3 4 6 2 -1 5 -1 
7 3 7 7 8 8 5 1 -1 -1 
